proyfinal/src/viki/013/experimentInOfficeAgust.take6.output/96f3e3be-a028-47a8-b053-2fcfb2f78748.als.dat
{'cnf.clauses': '118081',
 'cnf.totvars': '69608',
 'conflict literals': '4',
 'conflicts': '4',
 'decisions': '1259',
 'memused.mb': '16.65',
 'outcome': 'UNSAT',
 'propagations': '21510',
 'restarts': '1',
 'solver.msecs': 34,
 'task.msecs': 89}
