proyfinal/src/viki/013/experimentInOfficeAgust.take6.output/96f3e3be-a028-47a8-b053-2fcfb2f78748.als.out
Reading from standard input... Use '--help' for help.
============================[ Problem Statistics ]=============================
|                                                                             |
|  Number of variables:         69608                                         |
|  Number of clauses:          118081                                         |
|  Parse time:                   0.03 s                                       |
|                                                                             |
============================[ Search Statistics ]==============================
| Conflicts |          ORIGINAL         |          LEARNT          | Progress |
|           |    Vars  Clauses Literals |    Limit  Clauses Lit/Cl |          |
===============================================================================
===============================================================================
restarts              : 1
conflicts             : 4              (115 /sec)
decisions             : 1259           (0.00 % random) (36154 /sec)
propagations          : 21510          (617695 /sec)
conflict literals     : 4              (0.00 % deleted)
Memory used           : 16.65 MB
CPU time              : 0.034823 s

UNSATISFIABLE
